c description: Tseitin formula on Random 4-regular graph of 23 vertices, with odd charge
c generator: CNFgen (0.9.2)
c copyright: (C) 2012-2022 Massimo Lauria <massimo.lauria@uniroma1.it>
c url: https://massimolauria.net/cnfgen
c command line: cnfgen tseitin 23
c
p cnf 46 184
1 2 3 -4 0
1 2 -3 4 0
1 -2 3 4 0
1 -2 -3 -4 0
-1 2 3 4 0
-1 2 -3 -4 0
-1 -2 3 -4 0
-1 -2 -3 4 0
5 6 7 -8 0
5 6 -7 8 0
5 -6 7 8 0
5 -6 -7 -8 0
-5 6 7 8 0
-5 6 -7 -8 0
-5 -6 7 -8 0
-5 -6 -7 8 0
1 9 10 -11 0
1 9 -10 11 0
1 -9 10 11 0
1 -9 -10 -11 0
-1 9 10 11 0
-1 9 -10 -11 0
-1 -9 10 -11 0
-1 -9 -10 11 0
12 13 14 -15 0
12 13 -14 15 0
12 -13 14 15 0
12 -13 -14 -15 0
-12 13 14 15 0
-12 13 -14 -15 0
-12 -13 14 -15 0
-12 -13 -14 15 0
2 9 16 -17 0
2 9 -16 17 0
2 -9 16 17 0
2 -9 -16 -17 0
-2 9 16 17 0
-2 9 -16 -17 0
-2 -9 16 -17 0
-2 -9 -16 17 0
18 19 20 21 0
18 19 -20 -21 0
18 -19 20 -21 0
18 -19 -20 21 0
-18 19 20 -21 0
-18 19 -20 21 0
-18 -19 20 21 0
-18 -19 -20 -21 0
5 18 22 -23 0
5 18 -22 23 0
5 -18 22 23 0
5 -18 -22 -23 0
-5 18 22 23 0
-5 18 -22 -23 0
-5 -18 22 -23 0
-5 -18 -22 23 0
6 24 25 -26 0
6 24 -25 26 0
6 -24 25 26 0
6 -24 -25 -26 0
-6 24 25 26 0
-6 24 -25 -26 0
-6 -24 25 -26 0
-6 -24 -25 26 0
10 27 28 -29 0
10 27 -28 29 0
10 -27 28 29 0
10 -27 -28 -29 0
-10 27 28 29 0
-10 27 -28 -29 0
-10 -27 28 -29 0
-10 -27 -28 29 0
22 30 31 -32 0
22 30 -31 32 0
22 -30 31 32 0
22 -30 -31 -32 0
-22 30 31 32 0
-22 30 -31 -32 0
-22 -30 31 -32 0
-22 -30 -31 32 0
3 11 24 33 0
3 11 -24 -33 0
3 -11 24 -33 0
3 -11 -24 33 0
-3 11 24 -33 0
-3 11 -24 33 0
-3 -11 24 33 0
-3 -11 -24 -33 0
34 35 36 37 0
34 35 -36 -37 0
34 -35 36 -37 0
34 -35 -36 37 0
-34 35 36 -37 0
-34 35 -36 37 0
-34 -35 36 37 0
-34 -35 -36 -37 0
12 19 34 -38 0
12 19 -34 38 0
12 -19 34 38 0
12 -19 -34 -38 0
-12 19 34 38 0
-12 19 -34 -38 0
-12 -19 34 -38 0
-12 -19 -34 38 0
7 23 27 -35 0
7 23 -27 35 0
7 -23 27 35 0
7 -23 -27 -35 0
-7 23 27 35 0
-7 23 -27 -35 0
-7 -23 27 -35 0
-7 -23 -27 35 0
13 25 28 -39 0
13 25 -28 39 0
13 -25 28 39 0
13 -25 -28 -39 0
-13 25 28 39 0
-13 25 -28 -39 0
-13 -25 28 -39 0
-13 -25 -28 39 0
14 20 38 40 0
14 20 -38 -40 0
14 -20 38 -40 0
14 -20 -38 40 0
-14 20 38 -40 0
-14 20 -38 40 0
-14 -20 38 40 0
-14 -20 -38 -40 0
8 16 41 42 0
8 16 -41 -42 0
8 -16 41 -42 0
8 -16 -41 42 0
-8 16 41 -42 0
-8 16 -41 42 0
-8 -16 41 42 0
-8 -16 -41 -42 0
30 36 43 44 0
30 36 -43 -44 0
30 -36 43 -44 0
30 -36 -43 44 0
-30 36 43 -44 0
-30 36 -43 44 0
-30 -36 43 44 0
-30 -36 -43 -44 0
15 41 43 45 0
15 41 -43 -45 0
15 -41 43 -45 0
15 -41 -43 45 0
-15 41 43 -45 0
-15 41 -43 45 0
-15 -41 43 45 0
-15 -41 -43 -45 0
21 31 33 -39 0
21 31 -33 39 0
21 -31 33 39 0
21 -31 -33 -39 0
-21 31 33 39 0
-21 31 -33 -39 0
-21 -31 33 -39 0
-21 -31 -33 39 0
32 42 45 -46 0
32 42 -45 46 0
32 -42 45 46 0
32 -42 -45 -46 0
-32 42 45 46 0
-32 42 -45 -46 0
-32 -42 45 -46 0
-32 -42 -45 46 0
17 26 37 -46 0
17 26 -37 46 0
17 -26 37 46 0
17 -26 -37 -46 0
-17 26 37 46 0
-17 26 -37 -46 0
-17 -26 37 -46 0
-17 -26 -37 46 0
4 29 40 -44 0
4 29 -40 44 0
4 -29 40 44 0
4 -29 -40 -44 0
-4 29 40 44 0
-4 29 -40 -44 0
-4 -29 40 -44 0
-4 -29 -40 44 0
